0	15
0	13
0	4
1	4
1	1
1	8
2	0
2	1
2	15
2	3
2	5
2	8
2	14
2	10
2	9
2	12
2	6
2	4
2	11
2	7
2	2
3	11
3	2
3	3
3	14
3	9
3	1
3	12
4	10
4	0
4	8
4	14
4	1
4	5
4	12
4	11
4	3
4	9
4	15
4	6
4	7
4	13
4	2
4	4